Set parameter WLSAccessID
Set parameter WLSSecret
Set parameter LicenseID to value 2663665
Academic license 2663665 - for non-commercial use only - registered to tu___@vnu.edu.vn
------------------Gurobi Log------------------
Gurobi Optimizer version 13.0.1 build v13.0.1rc0 (linux64 - "Debian GNU/Linux 12 (bookworm)")

CPU model: AMD EPYC 7B12, instruction set [SSE2|AVX|AVX2]
Thread count: 4 physical cores, 8 logical processors, using up to 8 threads

Academic license 2663665 - for non-commercial use only - registered to tu___@vnu.edu.vn
Optimize a model with 549 rows, 240 columns and 9066 nonzeros (Min)
Model fingerprint: 0xb39fac14
Model has 0 linear objective coefficients
Variable types: 0 continuous, 240 integer (240 binary)
Coefficient statistics:
  Matrix range     [1e+00, 1e+00]
  Objective range  [0e+00, 0e+00]
  Bounds range     [1e+00, 1e+00]
  RHS range        [1e+00, 2e+01]

Presolve time: 0.01s
Presolved: 549 rows, 240 columns, 9066 nonzeros
Variable types: 0 continuous, 240 integer (240 binary)

Root relaxation: objective 0.000000e+00, 261 iterations, 0.01 seconds (0.01 work units)

    Nodes    |    Current Node    |     Objective Bounds      |     Work
 Expl Unexpl |  Obj  Depth IntInf | Incumbent    BestBd   Gap | It/Node Time

H    0     0                       0.0000000    0.00000  0.00%     -    0s
     0     0    0.00000    0   30    0.00000    0.00000  0.00%     -    0s

Explored 1 nodes (261 simplex iterations) in 0.02 seconds (0.02 work units)
Thread count was 8 (of 8 available processors)

Solution count 1: 0 

Optimal solution found (tolerance 1.00e-04)
Best objective 0.000000000000e+00, best bound 0.000000000000e+00, gap 0.0000%
------------------Specifications------------------
Processing Time     : 0.010 seconds
Optimization Time   : 0.016 seconds
Total Time          : 0.026 seconds
Memory Usaged       : 14.80 MB
------------------Verifying solution------------------
All constraints are satisfied.
------------------Schedule------------------
Nurse 0: 0 2 0 2 3 2 1 3 1 3 1 3 1 2 0 2 0 2 3 2 1 3 1 3 1 3 1 2 0 2 0 2 3 2 1 3 1 3 1 3 1 2 0 2 0 2 3 2 1 3 1 3 1 3 1 2 0 2 0 2
